NAME: dj10
TYPE: TSP
DIMENSION: 10
EDGE_WEIGHT_TYPE: EUC_2D
NODE_COORD_SECTION
1 12058.333300 42195.555600
2 12149.444400 42477.500000
3 12286.944400 43355.555600
4 12300.000000 42433.333300
5 12355.833300 43156.388900
6 12363.333300 43189.166700
7 12372.777800 42711.388900
8 12386.666700 43334.722200
9 12421.666700 42895.555600
10 12645.000000 42973.333300